benchmarks/R189_k60.lp
% benchmark R189_k60
% num of cables
#const k=60.
% num of 2-sided cables
#const b=30.

% atomic constraints
atomiccon(2,1).
atomiccon(2,8).
atomiccon(2,9).
atomiccon(2,10).
atomiccon(2,11).
atomiccon(2,12).
atomiccon(2,13).
atomiccon(2,14).
atomiccon(2,15).
atomiccon(2,16).
atomiccon(2,17).
atomiccon(2,21).
atomiccon(2,22).
atomiccon(2,23).
atomiccon(2,24).
atomiccon(2,25).
atomiccon(3,1).
atomiccon(3,2).
atomiccon(3,8).
atomiccon(3,9).
atomiccon(3,10).
atomiccon(3,11).
atomiccon(3,12).
atomiccon(3,13).
atomiccon(3,14).
atomiccon(3,15).
atomiccon(3,16).
atomiccon(3,17).
atomiccon(3,21).
atomiccon(3,22).
atomiccon(3,23).
atomiccon(3,24).
atomiccon(3,25).
atomiccon(4,1).
atomiccon(4,2).
atomiccon(4,8).
atomiccon(4,9).
atomiccon(4,10).
atomiccon(4,11).
atomiccon(4,12).
atomiccon(4,13).
atomiccon(4,14).
atomiccon(4,15).
atomiccon(4,16).
atomiccon(4,17).
atomiccon(4,21).
atomiccon(4,22).
atomiccon(4,23).
atomiccon(4,24).
atomiccon(4,25).
atomiccon(5,1).
atomiccon(5,8).
atomiccon(5,9).
atomiccon(5,10).
atomiccon(5,11).
atomiccon(5,12).
atomiccon(5,13).
atomiccon(5,14).
atomiccon(5,15).
atomiccon(5,16).
atomiccon(5,17).
atomiccon(6,1).
atomiccon(6,5).
atomiccon(6,8).
atomiccon(6,9).
atomiccon(6,10).
atomiccon(6,11).
atomiccon(6,12).
atomiccon(6,13).
atomiccon(6,14).
atomiccon(6,15).
atomiccon(6,16).
atomiccon(6,17).
atomiccon(7,1).
atomiccon(7,5).
atomiccon(7,8).
atomiccon(7,9).
atomiccon(7,10).
atomiccon(7,11).
atomiccon(7,12).
atomiccon(7,13).
atomiccon(7,14).
atomiccon(7,15).
atomiccon(7,16).
atomiccon(7,17).
atomiccon(8,10).
atomiccon(9,10).
atomiccon(11,1).
atomiccon(11,8).
atomiccon(11,9).
atomiccon(11,10).
atomiccon(11,14).
atomiccon(11,16).
atomiccon(11,17).
atomiccon(12,1).
atomiccon(12,8).
atomiccon(12,9).
atomiccon(12,10).
atomiccon(12,11).
atomiccon(12,14).
atomiccon(12,15).
atomiccon(12,16).
atomiccon(12,17).
atomiccon(13,1).
atomiccon(13,8).
atomiccon(13,9).
atomiccon(13,10).
atomiccon(13,11).
atomiccon(13,12).
atomiccon(13,14).
atomiccon(13,15).
atomiccon(13,16).
atomiccon(13,17).
atomiccon(14,1).
atomiccon(14,8).
atomiccon(14,9).
atomiccon(14,10).
atomiccon(14,16).
atomiccon(14,17).
atomiccon(15,1).
atomiccon(15,8).
atomiccon(15,9).
atomiccon(15,10).
atomiccon(15,14).
atomiccon(15,16).
atomiccon(15,17).
atomiccon(16,1).
atomiccon(16,8).
atomiccon(16,9).
atomiccon(16,10).
atomiccon(17,1).
atomiccon(17,8).
atomiccon(17,9).
atomiccon(17,10).
atomiccon(17,16).
atomiccon(46,1).
atomiccon(46,8).
atomiccon(46,9).
atomiccon(46,10).
atomiccon(46,18).
atomiccon(46,19).
atomiccon(46,20).
atomiccon(46,21).
atomiccon(46,22).
atomiccon(46,23).
atomiccon(46,24).
atomiccon(46,25).
atomiccon(58,1).
atomiccon(58,8).
atomiccon(58,9).
atomiccon(58,10).
atomiccon(58,18).
atomiccon(58,19).
atomiccon(58,20).
atomiccon(58,21).
atomiccon(58,22).
atomiccon(58,23).
atomiccon(58,24).
atomiccon(58,25).
atomiccon(57,1).
atomiccon(57,8).
atomiccon(57,9).
atomiccon(57,10).
atomiccon(57,46).
atomiccon(57,58).
atomiccon(57,18).
atomiccon(57,19).
atomiccon(57,20).
atomiccon(57,21).
atomiccon(57,22).
atomiccon(57,23).
atomiccon(57,24).
atomiccon(57,25).
atomiccon(18,19).
atomiccon(20,19).
atomiccon(22,21).
atomiccon(22,23).
atomiccon(22,24).
atomiccon(22,25).
atomiccon(23,21).
atomiccon(23,24).
atomiccon(25,21).
atomiccon(25,24).
atomiccon(26,28).
atomiccon(27,26).
atomiccon(27,28).
atomiccon(29,8).
atomiccon(29,9).
atomiccon(29,10).
atomiccon(29,18).
atomiccon(29,19).
atomiccon(29,20).
atomiccon(29,21).
atomiccon(29,22).
atomiccon(29,23).
atomiccon(29,24).
atomiccon(29,25).
atomiccon(29,26).
atomiccon(29,27).
atomiccon(29,28).
atomiccon(30,8).
atomiccon(30,9).
atomiccon(30,10).
atomiccon(30,18).
atomiccon(30,19).
atomiccon(30,20).
atomiccon(30,21).
atomiccon(30,22).
atomiccon(30,23).
atomiccon(30,24).
atomiccon(30,25).
atomiccon(30,26).
atomiccon(30,27).
atomiccon(30,28).
atomiccon(32,18).
atomiccon(32,19).
atomiccon(32,20).
atomiccon(32,26).
atomiccon(32,27).
atomiccon(32,28).
atomiccon(32,31).
atomiccon(32,36).
atomiccon(31,18).
atomiccon(31,19).
atomiccon(31,20).
atomiccon(31,26).
atomiccon(31,27).
atomiccon(31,28).
atomiccon(33,18).
atomiccon(33,19).
atomiccon(33,20).
atomiccon(33,26).
atomiccon(33,27).
atomiccon(33,28).
atomiccon(33,31).
atomiccon(33,32).
atomiccon(33,34).
atomiccon(33,36).
atomiccon(34,18).
atomiccon(34,19).
atomiccon(34,20).
atomiccon(34,26).
atomiccon(34,27).
atomiccon(34,28).
atomiccon(34,31).
atomiccon(34,36).
atomiccon(35,18).
atomiccon(35,19).
atomiccon(35,20).
atomiccon(35,26).
atomiccon(35,27).
atomiccon(35,28).
atomiccon(35,31).
atomiccon(35,32).
atomiccon(35,34).
atomiccon(35,36).
atomiccon(36,18).
atomiccon(36,19).
atomiccon(36,20).
atomiccon(36,26).
atomiccon(36,27).
atomiccon(36,28).
atomiccon(37,19).
atomiccon(37,26).
atomiccon(37,27).
atomiccon(37,28).
atomiccon(37,40).
atomiccon(37,41).
atomiccon(37,42).
atomiccon(37,43).
atomiccon(37,44).
atomiccon(38,18).
atomiccon(38,19).
atomiccon(38,20).
atomiccon(38,26).
atomiccon(38,27).
atomiccon(38,28).
atomiccon(38,37).
atomiccon(38,40).
atomiccon(38,41).
atomiccon(38,42).
atomiccon(38,43).
atomiccon(38,44).
atomiccon(39,18).
atomiccon(39,19).
atomiccon(39,20).
atomiccon(39,26).
atomiccon(39,27).
atomiccon(39,28).
atomiccon(39,37).
atomiccon(39,38).
atomiccon(39,40).
atomiccon(39,41).
atomiccon(39,42).
atomiccon(39,43).
atomiccon(39,44).
atomiccon(41,40).
atomiccon(42,40).
atomiccon(42,41).
atomiccon(43,40).
atomiccon(43,41).
atomiccon(43,42).
atomiccon(44,40).
atomiccon(44,41).
atomiccon(44,42).
atomiccon(44,43).
atomiccon(54,51).
atomiccon(55,51).
atomiccon(56,52).
atomiccon(56,51).
atomiccon(53,52).
atomiccon(53,51).
atomiccon(45,52).
atomiccon(45,51).
atomiccon(59,52).
atomiccon(59,51).
atomiccon(49,52).
atomiccon(49,54).
atomiccon(49,55).
atomiccon(49,56).
atomiccon(49,53).
atomiccon(49,45).
atomiccon(49,59).
atomiccon(49,51).
atomiccon(60,54).
atomiccon(60,55).
atomiccon(60,56).
atomiccon(60,51).
atomiccon(48,54).
atomiccon(48,55).
atomiccon(48,56).
atomiccon(48,60).
atomiccon(48,51).
atomiccon(47,54).
atomiccon(47,55).
atomiccon(47,56).
atomiccon(47,53).
atomiccon(47,60).
atomiccon(47,51).
atomiccon(50,52).
atomiccon(50,54).
atomiccon(50,55).
atomiccon(50,56).
atomiccon(50,53).
atomiccon(50,45).
atomiccon(50,60).
atomiccon(50,51).

% disjunctive constraints
discon(5,13,5,57).
discon(5,14,58,5).
discon(5,15,59,5).
discon(5,52,5,8).
discon(5,54,5,10).
discon(5,55,5,11).
discon(5,56,5,12).
discon(5,60,5,16).
discon(6,13,6,57).
discon(6,14,58,6).
discon(6,15,59,6).
discon(6,52,6,8).
discon(6,54,6,10).
discon(6,55,6,11).
discon(6,56,6,12).
discon(6,60,6,16).
discon(7,14,7,58).
discon(7,53,7,9).
discon(7,59,7,15).
discon(11,9,53,11).
discon(11,52,11,8).
discon(11,54,11,10).
discon(12,9,53,12).
discon(12,52,12,8).
discon(12,54,12,10).
discon(12,60,12,16).
discon(13,52,13,8).
discon(13,54,13,10).
discon(13,60,13,16).
discon(14,53,14,9).
discon(15,53,15,9).
discon(16,9,53,16).
discon(16,52,16,8).
discon(16,54,16,10).
discon(17,9,53,17).
discon(17,52,17,8).
discon(17,54,17,10).
discon(55,56,55,54).
discon(56,53,56,55).
discon(53,45,53,56).
discon(45,59,45,53).
discon(60,55,11,60).
discon(48,55,11,48).
discon(47,56,12,47).
discon(47,50,47,48).
discon(47,51,7,47).
discon(50,53,9,50).

% soft atomic constraints
softcon(4,3).
softcon(7,6).
softcon(9,8).
softcon(32,9).
softcon(15,11).
softcon(46,14).
softcon(18,20).
softcon(21,24).
softcon(23,25).
softcon(42,26).
softcon(41,28).
softcon(29,30).
softcon(34,32).
softcon(35,33).
softcon(37,34).
softcon(39,35).
softcon(31,36).
softcon(59,45).
softcon(58,46).
softcon(50,47).
softcon(47,48).
softcon(45,53).
softcon(55,54).
softcon(56,55).
softcon(53,56).

% direct successor constraints

