benchmarks/minizinc/R189_k60.dzn
k = 60;
b = 30;
AtomicConstraints =  [|
	2, 1|
	2, 8|
	2, 9|
	2, 10|
	2, 11|
	2, 12|
	2, 13|
	2, 14|
	2, 15|
	2, 16|
	2, 17|
	2, 21|
	2, 22|
	2, 23|
	2, 24|
	2, 25|
	3, 1|
	3, 2|
	3, 8|
	3, 9|
	3, 10|
	3, 11|
	3, 12|
	3, 13|
	3, 14|
	3, 15|
	3, 16|
	3, 17|
	3, 21|
	3, 22|
	3, 23|
	3, 24|
	3, 25|
	4, 1|
	4, 2|
	4, 8|
	4, 9|
	4, 10|
	4, 11|
	4, 12|
	4, 13|
	4, 14|
	4, 15|
	4, 16|
	4, 17|
	4, 21|
	4, 22|
	4, 23|
	4, 24|
	4, 25|
	5, 1|
	5, 8|
	5, 9|
	5, 10|
	5, 11|
	5, 12|
	5, 13|
	5, 14|
	5, 15|
	5, 16|
	5, 17|
	6, 1|
	6, 5|
	6, 8|
	6, 9|
	6, 10|
	6, 11|
	6, 12|
	6, 13|
	6, 14|
	6, 15|
	6, 16|
	6, 17|
	7, 1|
	7, 5|
	7, 8|
	7, 9|
	7, 10|
	7, 11|
	7, 12|
	7, 13|
	7, 14|
	7, 15|
	7, 16|
	7, 17|
	8, 10|
	9, 10|
	11, 1|
	11, 8|
	11, 9|
	11, 10|
	11, 14|
	11, 16|
	11, 17|
	12, 1|
	12, 8|
	12, 9|
	12, 10|
	12, 11|
	12, 14|
	12, 15|
	12, 16|
	12, 17|
	13, 1|
	13, 8|
	13, 9|
	13, 10|
	13, 11|
	13, 12|
	13, 14|
	13, 15|
	13, 16|
	13, 17|
	14, 1|
	14, 8|
	14, 9|
	14, 10|
	14, 16|
	14, 17|
	15, 1|
	15, 8|
	15, 9|
	15, 10|
	15, 14|
	15, 16|
	15, 17|
	16, 1|
	16, 8|
	16, 9|
	16, 10|
	17, 1|
	17, 8|
	17, 9|
	17, 10|
	17, 16|
	46, 1|
	46, 8|
	46, 9|
	46, 10|
	46, 18|
	46, 19|
	46, 20|
	46, 21|
	46, 22|
	46, 23|
	46, 24|
	46, 25|
	58, 1|
	58, 8|
	58, 9|
	58, 10|
	58, 18|
	58, 19|
	58, 20|
	58, 21|
	58, 22|
	58, 23|
	58, 24|
	58, 25|
	57, 1|
	57, 8|
	57, 9|
	57, 10|
	57, 46|
	57, 58|
	57, 18|
	57, 19|
	57, 20|
	57, 21|
	57, 22|
	57, 23|
	57, 24|
	57, 25|
	18, 19|
	20, 19|
	22, 21|
	22, 23|
	22, 24|
	22, 25|
	23, 21|
	23, 24|
	25, 21|
	25, 24|
	26, 28|
	27, 26|
	27, 28|
	29, 8|
	29, 9|
	29, 10|
	29, 18|
	29, 19|
	29, 20|
	29, 21|
	29, 22|
	29, 23|
	29, 24|
	29, 25|
	29, 26|
	29, 27|
	29, 28|
	30, 8|
	30, 9|
	30, 10|
	30, 18|
	30, 19|
	30, 20|
	30, 21|
	30, 22|
	30, 23|
	30, 24|
	30, 25|
	30, 26|
	30, 27|
	30, 28|
	32, 18|
	32, 19|
	32, 20|
	32, 26|
	32, 27|
	32, 28|
	32, 31|
	32, 36|
	31, 18|
	31, 19|
	31, 20|
	31, 26|
	31, 27|
	31, 28|
	33, 18|
	33, 19|
	33, 20|
	33, 26|
	33, 27|
	33, 28|
	33, 31|
	33, 32|
	33, 34|
	33, 36|
	34, 18|
	34, 19|
	34, 20|
	34, 26|
	34, 27|
	34, 28|
	34, 31|
	34, 36|
	35, 18|
	35, 19|
	35, 20|
	35, 26|
	35, 27|
	35, 28|
	35, 31|
	35, 32|
	35, 34|
	35, 36|
	36, 18|
	36, 19|
	36, 20|
	36, 26|
	36, 27|
	36, 28|
	37, 19|
	37, 26|
	37, 27|
	37, 28|
	37, 40|
	37, 41|
	37, 42|
	37, 43|
	37, 44|
	38, 18|
	38, 19|
	38, 20|
	38, 26|
	38, 27|
	38, 28|
	38, 37|
	38, 40|
	38, 41|
	38, 42|
	38, 43|
	38, 44|
	39, 18|
	39, 19|
	39, 20|
	39, 26|
	39, 27|
	39, 28|
	39, 37|
	39, 38|
	39, 40|
	39, 41|
	39, 42|
	39, 43|
	39, 44|
	41, 40|
	42, 40|
	42, 41|
	43, 40|
	43, 41|
	43, 42|
	44, 40|
	44, 41|
	44, 42|
	44, 43|
	54, 51|
	55, 51|
	56, 52|
	56, 51|
	53, 52|
	53, 51|
	45, 52|
	45, 51|
	59, 52|
	59, 51|
	49, 52|
	49, 54|
	49, 55|
	49, 56|
	49, 53|
	49, 45|
	49, 59|
	49, 51|
	60, 54|
	60, 55|
	60, 56|
	60, 51|
	48, 54|
	48, 55|
	48, 56|
	48, 60|
	48, 51|
	47, 54|
	47, 55|
	47, 56|
	47, 53|
	47, 60|
	47, 51|
	50, 52|
	50, 54|
	50, 55|
	50, 56|
	50, 53|
	50, 45|
	50, 60|
	50, 51|];
DisjunctiveConstraints =  [|
	5, 13, 5, 57|
	5, 14, 58, 5|
	5, 15, 59, 5|
	5, 52, 5, 8|
	5, 54, 5, 10|
	5, 55, 5, 11|
	5, 56, 5, 12|
	5, 60, 5, 16|
	6, 13, 6, 57|
	6, 14, 58, 6|
	6, 15, 59, 6|
	6, 52, 6, 8|
	6, 54, 6, 10|
	6, 55, 6, 11|
	6, 56, 6, 12|
	6, 60, 6, 16|
	7, 14, 7, 58|
	7, 53, 7, 9|
	7, 59, 7, 15|
	11, 9, 53, 11|
	11, 52, 11, 8|
	11, 54, 11, 10|
	12, 9, 53, 12|
	12, 52, 12, 8|
	12, 54, 12, 10|
	12, 60, 12, 16|
	13, 52, 13, 8|
	13, 54, 13, 10|
	13, 60, 13, 16|
	14, 53, 14, 9|
	15, 53, 15, 9|
	16, 9, 53, 16|
	16, 52, 16, 8|
	16, 54, 16, 10|
	17, 9, 53, 17|
	17, 52, 17, 8|
	17, 54, 17, 10|
	55, 56, 55, 54|
	56, 53, 56, 55|
	53, 45, 53, 56|
	45, 59, 45, 53|
	60, 55, 11, 60|
	48, 55, 11, 48|
	47, 56, 12, 47|
	47, 50, 47, 48|
	47, 51, 7, 47|
	50, 53, 9, 50|];
SoftAtomicConstraints =  [|
4, 3|
7, 6|
9, 8|
32, 9|
15, 11|
46, 14|
18, 20|
21, 24|
23, 25|
42, 26|
41, 28|
29, 30|
34, 32|
35, 33|
37, 34|
39, 35|
31, 36|
59, 45|
58, 46|
50, 47|
47, 48|
45, 53|
55, 54|
56, 55|
53, 56|];
DirectSuccessors =  [];